100 10000
762 378
191 805
784 165
478 433
618 275
628 528
489 782
876 220
910 399
43 174
306 931
867 348
481 748
585 577
15 834
161 496
512 600
575 995
547 344
249 212
186 724
408 171
285 373
798 830
688 737
911 16
728 88
559 649
180 162
159 814
437 564
853 936
849 836
658 345
589 694
936 338
849 355
50 486
311 305
508 257
953 7
36 905
644 779
468 66
366 659
783 778
793 380
246 728
944 624
849 651
785 283
169 926
927 756
16 539
887 647
823 603
291 491
993 257
68 137
327 380
581 838
922 132
751 343
908 4
313 631
733 430
778 738
846 715
178 879
180 601
907 935
722 393
832 781
881 33
332 820
752 912
696 786
343 412
794 665
145 999
457 45
354 125
891 765
866 573
927 862
282 324
470 825
189 547
707 60
144 622
142 478
949 791
532 110
164 206
413 187
159 63
403 920
422 672
567 658
958 859
